ws_caric/src/star_planner/utils/lkh_mtsp_solver/resource/amtsp4_raffles.atsp
NAME : pairopt
TYPE : ACVRP
DIMENSION : 6
EDGE_WEIGHT_TYPE : EXPLICIT
EDGE_WEIGHT_FORMAT : FULL_MATRIX
CAPACITY : 171570.100000
VEHICLES : 2
EDGE_WEIGHT_SECTION
100000 -100000 -100000 100000 100000 100000 
100000 100000 1000000 2546 5093 7051 
100000 1000000 100000 2190 5485 7671 
0 0 0 100000 5966 9106 
0 0 0 5966 100000 4692 
0 0 0 9106 4692 100000 
DEMAND_SECTION
1 0
2 0
3 0
4 23552
5 229482
6 10920
DEPOT_SECTION
1
EOF